
Log started (V12.10.0.0) Fri Apr  9 00:27:47 2021


Problem 'asset.lp' read.
Read time = 0.00 sec. (0.06 ticks)
New value for default parallel thread count: 1
New value for time limit in seconds: 200
Version identifier: 12.10.0.0 | 2019-11-26 | 843d4de
CPXPARAM_Threads                                 1
CPXPARAM_TimeLimit                               200
Found incumbent of value -0.897414 after 0.00 sec. (0.03 ticks)
Tried aggregator 4 times.
MIP Presolve eliminated 181 rows and 94 columns.
MIP Presolve modified 493 coefficients.
Aggregator did 223 substitutions.
Reduced MIP has 270 rows, 305 columns, and 1122 nonzeros.
Reduced MIP has 266 binaries, 20 generals, 0 SOSs, and 0 indicators.
Presolve time = 0.00 sec. (3.06 ticks)
Probing fixed 35 vars, tightened 1 bounds.
Probing time = 0.00 sec. (0.69 ticks)
Cover probing fixed 0 vars, tightened 28 bounds.
Tried aggregator 2 times.
MIP Presolve eliminated 46 rows and 45 columns.
MIP Presolve modified 56 coefficients.
Aggregator did 3 substitutions.
Reduced MIP has 221 rows, 256 columns, and 877 nonzeros.
Reduced MIP has 219 binaries, 18 generals, 0 SOSs, and 0 indicators.
Presolve time = 0.00 sec. (1.18 ticks)
Probing time = 0.00 sec. (0.49 ticks)
Tried aggregator 1 time.
Detecting symmetries...
MIP Presolve modified 10 coefficients.
Reduced MIP has 221 rows, 256 columns, and 877 nonzeros.
Reduced MIP has 219 binaries, 18 generals, 0 SOSs, and 0 indicators.
Presolve time = 0.00 sec. (0.61 ticks)
Probing time = 0.00 sec. (0.49 ticks)
Clique table members: 645.
MIP emphasis: balance optimality and feasibility.
MIP search method: dynamic search.
Parallel mode: none, using 1 thread.
Root relaxation solution time = 0.00 sec. (1.43 ticks)

        Nodes                                         Cuts/
   Node  Left     Objective  IInf  Best Integer    Best Bound    ItCnt     Gap

*     0+    0                           -0.8974      237.2050              --- 
      0     0      135.1946    41       -0.8974      135.1946      152     --- 
*     0+    0                          109.3347      135.1946            23.65%
      0     0      132.4512    41      109.3347      Cuts: 93      199   21.14%
*     0+    0                          127.0782      132.4512             4.23%
      0     0      131.5394    41      127.0782      Cuts: 60      248    3.51%
*     0+    0                          127.0783      131.5394             3.51%
      0     0        cutoff            127.0783      131.5394      248    3.51%
Detecting symmetries...

Repeating presolve.
Tried aggregator 2 times.
MIP Presolve eliminated 86 rows and 98 columns.
MIP Presolve modified 16 coefficients.
Aggregator did 4 substitutions.
Reduced MIP has 131 rows, 151 columns, and 468 nonzeros.
Reduced MIP has 126 binaries, 13 generals, 0 SOSs, and 0 indicators.
Presolve time = 0.00 sec. (0.86 ticks)
Probing time = 0.00 sec. (0.17 ticks)
Cover probing fixed 0 vars, tightened 10 bounds.
Tried aggregator 1 time.
Detecting symmetries...
MIP Presolve eliminated 11 rows and 0 columns.
MIP Presolve modified 39 coefficients.
Reduced MIP has 120 rows, 151 columns, and 446 nonzeros.
Reduced MIP has 126 binaries, 13 generals, 0 SOSs, and 0 indicators.
Presolve time = 0.00 sec. (0.34 ticks)
Represolve time = 0.00 sec. (2.05 ticks)
Probing time = 0.00 sec. (0.17 ticks)
Clique table members: 254.
MIP emphasis: balance optimality and feasibility.
MIP search method: dynamic search.
Parallel mode: none, using 1 thread.
Root relaxation solution time = 0.00 sec. (1.05 ticks)

        Nodes                                         Cuts/
   Node  Left     Objective  IInf  Best Integer    Best Bound    ItCnt     Gap

*     0+    0                          127.0783      131.5394             3.51%
      0     0      131.5376    47      127.0783      131.5376      361    3.51%
*     0+    0                          130.5243      131.5376             0.78%
      0     0      130.9996    47      130.5243      Cuts: 37      386    0.36%
      0     0      130.7855    47      130.5243   LiftProj: 2      403    0.20%
*     0+    0                          130.7843      130.7855             0.00%

Clique cuts applied:  3
Cover cuts applied:  2
Implied bound cuts applied:  9
Flow cuts applied:  1
Zero-half cuts applied:  4
Lift and project cuts applied:  4
Gomory fractional cuts applied:  4

Root node processing (before b&c):
  Real time             =    0.04 sec. (27.64 ticks)
Sequential b&c:
  Real time             =    0.00 sec. (0.00 ticks)
                          ------------
Total (root+branch&cut) =    0.04 sec. (27.64 ticks)

Solution pool: 6 solutions saved.

MIP - Integer optimal, tolerance (0.0001/1e-06):  Objective =  1.3078425549e+02
Current MIP best bound =  1.3078546148e+02 (gap = 0.00120599, 0.00%)
Solution time =    0.04 sec.  Iterations = 403  Nodes = 0 (1)
Deterministic time = 27.64 ticks  (686.14 ticks/sec)


Incumbent solution
Variable Name           Solution Value
F                           150.000000
f1                            0.925745
f2                           18.290000
y93                           1.000000
y98                           1.000000
y100                          1.000000
y129                          1.000000
y156                          1.000000
y173                          1.000000
y85                           1.000000
y150                          1.000000
y108                          1.000000
y28                           1.000000
s1                            6.000000
s16                           6.000000
s38                           6.000000
s40                           6.000000
s45                           6.000000
s60                           6.000000
s74                           6.000000
s93                           6.000000
s98                           6.492258
s100                          6.685739
s101                          6.000000
s105                          6.000000
s114                          6.000000
s115                          6.000000
s129                          6.895085
s130                          6.000000
s132                          6.000000
s154                          6.000000
s156                          6.317812
s157                          6.000000
s173                          6.693449
s174                          6.000000
s176                          6.000000
s177                          6.000000
s179                          6.000000
s85                           6.990003
s103                          6.280000
s150                          7.237637
s108                          7.336100
s28                           7.042486
s2                            6.800000
x86x98x1                      1.000000
x126x85x1                     1.000000
x41x98x1                      1.000000
x41x173x1                     1.000000
x9x129x1                      1.000000
x97x150x1                     1.000000
x10x28x1                      1.000000
x86x156x2                     1.000000
x107x129x2                    1.000000
x126x85x2                     1.000000
x97x100x2                     1.000000
x112x150x2                    1.000000
x107x108x3                    1.000000
x9x173x3                      1.000000
x149x108x3                    1.000000
x112x28x3                     1.000000
x158x156x3                    1.000000
x6x93x3                       1.000000
x56x93x3                      1.000000
x56x100x3                     1.000000
x93x0x3                       2.000000
x98x0x1                       2.000000
x100x0x2                      1.000000
x100x0x3                      1.000000
x129x0x1                      1.000000
x129x0x2                      1.000000
x156x0x2                      1.000000
x156x0x3                      1.000000
x173x0x1                      1.000000
x173x0x3                      1.000000
x85x0x1                       1.000000
x85x0x2                       1.000000
x150x0x1                      1.000000
x150x0x2                      1.000000
x108x0x3                      2.000000
x28x0x1                       1.000000
x28x0x3                       1.000000
s86                           4.944998
z86z98z1                      1.000000
z86z156z2                     1.000000
z86z2z1                       1.000000
s107                          5.321322
z107z129z2                    1.000000
z107z108z3                    1.000000
s126                          5.648602
z126z85z1                     1.000000
z126z85z2                     1.000000
s41                           5.000252
z41z98z1                      1.000000
z41z173z1                     1.000000
z41z2z1                       1.000000
s9                            5.145480
z9z129z1                      1.000000
z9z173z3                      1.000000
s149                          5.453227
z149z108z3                    1.000000
s97                           5.343131
z97z100z2                     1.000000
z97z150z1                     1.000000
s112                          5.540808
z112z150z2                    1.000000
z112z28z3                     1.000000
s10                           5.652996
z10z28z1                      1.000000
s158                          3.975830
z158z93z3                     1.000000
z158z156z3                    1.000000
z158z179z3                    1.000000
z158z108z3                    1.000000
s6                            4.131120
z6z45z3                       1.000000
z6z93z3                       1.000000
z6z179z3                      1.000000
z6z108z3                      1.000000
s56                           4.306030
z56z45z3                      1.000000
z56z93z3                      1.000000
z56z100z3                     1.000000
z56z179z3                     1.000000
z56z108z3                     1.000000
All other variables in the range 1-625 are 0.
